p cnf 39 31
-1 31 -32 0 
-2 3 32 0 
-3 2 31 -32 0 
-4 31 -32 0 
-2 3 33 -23 -32 0 
-2 3 34 -32 0 
-5 8 21 24 25 -6 31 -32 0 
-7 31 -32 0 
-8 5 21 24 25 35 -32 0 
-9 33 -23 -32 0 
-10 36 -32 0 
-10 32 0 
-11 17 19 28 31 -32 0 
-12 37 -32 0 
-13 38 -32 0 
-14 27 -15 32 0 
-16 31 -32 0 
-17 11 19 28 32 0 
-18 31 -32 0 
-19 11 17 28 31 -32 0 
-20 38 -32 0 
-21 5 8 24 25 31 -32 0 
-22 31 -32 0 
-23 31 -32 0 
-24 5 8 21 25 35 -32 0 
-3 2 -25 5 8 21 24 31 -32 0 
-26 -27 14 31 -32 0 
-20 31 -32 0 
-28 11 17 19 39 -32 0 
-29 39 -32 0 
-30 39 -32 0 
